(set-logic BV) (define-fun origCir ((n72 Bool) (n103 Bool) (n88 Bool) (n60 Bool) (i_7 Bool)) Bool (and (xor (xor n103 (and n88 n60)) n72) i_7)) (synth-fun skel ((n72 Bool) (n103 Bool) (n88 Bool) (n60 Bool) (i_7 Bool)) Bool) (declare-var n72 Bool) (declare-var n103 Bool) (declare-var n88 Bool) (declare-var n60 Bool) (declare-var i_7 Bool) (constraint (= (origCir n72 n103 n88 n60 i_7) (skel n72 n103 n88 n60 i_7))) (check-synth)
